120 150

49
57
59
55
44
56
49
57
45
49
49
56
53
55
44
42
60
45
57
53
49
60
47
56
45
54
56
59
49
42
51
47
57
57
49
53
56
44
51
57
57
53
40
47
58
58
52
53
41
42
56
45
59
43
57
42
50
42
48
50
58
46
57
41
53
57
48
57
52
51
53
50
40
53
40
41
47
47
52
43
47
45
52
57
59
45
40
56
47
43
42
60
55
55
59
48
58
47
40
49
45
49
41
52
48
58
40
44
56
47
47
49
45
56
58
46
46
44
49
57